c "472212.clq"
p edge 80 304
e 1 5
e 1 6
e 1 8
e 1 13
e 1 15
e 1 19
e 1 24
e 1 40
e 1 47
e 1 59
e 1 65
e 2 5
e 2 6
e 2 7
e 2 17
e 2 19
e 2 20
e 2 22
e 2 33
e 2 42
e 2 58
e 2 65
e 3 5
e 3 9
e 3 29
e 4 5
e 4 6
e 4 7
e 4 8
e 4 9
e 4 10
e 4 11
e 4 14
e 4 15
e 4 24
e 4 32
e 4 34
e 4 37
e 4 38
e 4 42
e 4 44
e 4 46
e 4 47
e 4 51
e 4 55
e 4 73
e 5 6
e 5 7
e 5 8
e 5 11
e 5 13
e 5 14
e 5 19
e 5 21
e 5 25
e 5 27
e 5 31
e 5 49
e 5 54
e 5 63
e 5 69
e 6 7
e 6 8
e 6 9
e 6 10
e 6 11
e 6 12
e 6 13
e 6 15
e 6 16
e 6 17
e 6 20
e 6 22
e 6 27
e 6 33
e 6 39
e 6 40
e 6 42
e 6 50
e 6 52
e 6 57
e 6 62
e 6 73
e 7 11
e 7 17
e 7 20
e 7 27
e 7 28
e 7 34
e 7 38
e 7 44
e 7 62
e 7 72
e 8 9
e 8 10
e 8 12
e 8 14
e 8 15
e 8 16
e 8 18
e 8 22
e 8 25
e 8 28
e 8 29
e 8 32
e 8 34
e 8 35
e 8 37
e 8 41
e 8 42
e 8 46
e 8 48
e 8 50
e 8 55
e 8 56
e 8 66
e 8 67
e 8 68
e 8 73
e 8 76
e 9 10
e 9 12
e 9 26
e 9 33
e 9 48
e 9 54
e 9 57
e 9 58
e 9 71
e 9 74
e 9 77
e 9 78
e 10 16
e 10 23
e 10 26
e 10 31
e 10 38
e 10 39
e 10 46
e 10 70
e 10 79
e 11 12
e 11 13
e 11 17
e 11 20
e 11 21
e 11 24
e 11 25
e 11 26
e 11 30
e 11 43
e 11 56
e 11 59
e 12 23
e 12 31
e 12 43
e 12 45
e 12 55
e 12 62
e 12 63
e 13 14
e 13 18
e 13 19
e 13 36
e 13 40
e 13 53
e 13 60
e 13 61
e 13 76
e 14 16
e 14 18
e 14 21
e 14 25
e 14 30
e 14 34
e 14 35
e 14 36
e 14 41
e 14 46
e 14 47
e 14 49
e 14 50
e 14 54
e 14 56
e 14 59
e 14 64
e 14 79
e 15 43
e 16 18
e 16 22
e 16 29
e 16 32
e 16 41
e 16 48
e 16 55
e 16 69
e 16 80
e 17 29
e 17 52
e 17 66
e 18 23
e 18 30
e 18 61
e 18 68
e 19 28
e 19 35
e 19 38
e 19 56
e 20 21
e 20 23
e 20 24
e 20 26
e 20 27
e 20 28
e 20 32
e 20 36
e 20 39
e 20 41
e 20 45
e 20 58
e 20 61
e 20 70
e 20 73
e 20 74
e 20 78
e 20 80
e 21 64
e 22 50
e 23 30
e 23 37
e 23 51
e 23 74
e 24 33
e 24 52
e 24 72
e 24 76
e 25 31
e 26 40
e 27 37
e 27 69
e 27 78
e 28 72
e 29 47
e 29 66
e 29 71
e 32 60
e 32 64
e 32 78
e 33 45
e 33 53
e 33 57
e 33 59
e 33 70
e 33 75
e 34 35
e 34 36
e 34 39
e 34 49
e 34 60
e 34 77
e 35 51
e 36 48
e 36 51
e 37 43
e 37 53
e 37 61
e 37 67
e 38 80
e 39 44
e 39 49
e 39 53
e 39 54
e 39 64
e 39 69
e 39 74
e 41 57
e 41 65
e 41 71
e 41 72
e 42 45
e 43 44
e 43 77
e 45 60
e 45 63
e 45 65
e 45 79
e 46 67
e 47 75
e 47 76
e 48 52
e 49 63
e 50 58
e 51 62
e 51 68
e 54 67
e 61 68
e 61 75
e 62 70
e 62 71
e 64 80
e 65 66
e 67 77
e 67 79
e 72 75
